
Gurobi 8.0.1 (linux64, Python) logging started Sun Oct 28 02:00:17 2018

Academic license - for non-commercial use only
Optimize a model with 296 rows, 338 columns and 948 nonzeros
Model has 192 general constraints
Variable types: 218 continuous, 120 integer (96 binary)
Coefficient statistics:
  Matrix range     [1e+00, 4e+01]
  Objective range  [1e+00, 9e+02]
  Bounds range     [1e+00, 1e+00]
  RHS range        [1e+00, 4e+01]
Presolve added 216 rows and 0 columns
Presolve time: 0.01s
Presolved: 512 rows, 338 columns, 3774 nonzeros
Variable types: 0 continuous, 338 integer (288 binary)

Root relaxation: objective 0.000000e+00, 339 iterations, 0.01 seconds

    Nodes    |    Current Node    |     Objective Bounds      |     Work
 Expl Unexpl |  Obj  Depth IntInf | Incumbent    BestBd   Gap | It/Node Time

     0     0    0.00000    0  121          -    0.00000      -     -    0s
H    0     0                    10336.000000    0.00000   100%     -    0s
H    0     0                    6633.0000000    0.00000   100%     -    0s
     0     0    0.00000    0  136 6633.00000    0.00000   100%     -    0s
H    0     0                    5131.0000000    0.00000   100%     -    0s
H    0     0                    5124.0000000    0.00000   100%     -    0s
     0     0    0.00000    0   80 5124.00000    0.00000   100%     -    0s
H    0     0                    4933.0000000    0.00000   100%     -    0s
H    0     0                    4433.0000000    0.00000   100%     -    0s
     0     0    0.00000    0  120 4433.00000    0.00000   100%     -    0s
     0     0    0.00000    0  136 4433.00000    0.00000   100%     -    0s
     0     0    0.00000    0  121 4433.00000    0.00000   100%     -    0s
     0     0    0.00000    0  139 4433.00000    0.00000   100%     -    0s
H    0     0                    4234.0000000    0.00000   100%     -    0s
H    0     0                    3926.0000000    0.00000   100%     -    0s
     0     0    0.00000    0  109 3926.00000    0.00000   100%     -    0s
     0     0    0.00000    0  109 3926.00000    0.00000   100%     -    0s
     0     2    0.00000    0  109 3926.00000    0.00000   100%     -    0s
H   71    70                    3924.0000000    0.00000   100%  82.2    0s
H  156   137                    3844.0000000    0.00000   100%  50.1    0s
H  378   268                    3824.0000000    0.00000   100%  39.4    0s
*  398   278              30    3740.0000000    0.00000   100%  37.7    0s
H  444   317                    3659.0000000   13.36364   100%  37.1    0s
* 2143   752              54    3633.0000000  500.00000  86.2%  46.7    2s
H 3836  1035                    3569.0000000  976.00000  72.7%  41.2    3s
  9643  2063 3013.66667   29   66 3569.00000 1730.80000  51.5%  35.2    5s

Cutting planes:
  Zero half: 6

Explored 29745 nodes (746463 simplex iterations) in 8.99 seconds
Thread count was 4 (of 4 available processors)

Solution count 10: 3569 3633 3659 ... 4433

Optimal solution found (tolerance 1.00e-04)
Best objective 3.569000000000e+03, best bound 3.569000000000e+03, gap 0.0000%
Changed value of parameter TimeLimit to 100.0
   Prev: 1e+100  Min: 0.0  Max: 1e+100  Default: 1e+100
Changed value of parameter MIPFocus to 2
   Prev: 0  Min: 0  Max: 3  Default: 0
Optimize a model with 296 rows, 338 columns and 948 nonzeros
Model has 192 general constraints
Variable types: 218 continuous, 120 integer (96 binary)
Coefficient statistics:
  Matrix range     [1e+00, 4e+01]
  Objective range  [1e+00, 9e+02]
  Bounds range     [1e+00, 1e+00]
  RHS range        [1e+00, 4e+01]
Presolved: 512 rows, 338 columns, 3774 nonzeros

Continuing optimization...


Cutting planes:
  Zero half: 6

Explored 29745 nodes (746463 simplex iterations) in 0.00 seconds
Thread count was 4 (of 4 available processors)

Solution count 10: 3569 3633 3659 ... 4433

Optimal solution found (tolerance 1.00e-04)
Best objective 3.569000000000e+03, best bound 3.569000000000e+03, gap 0.0000%

Gurobi 8.0.1 (linux64, Python) logging started Sun Oct 28 18:08:23 2018

Academic license - for non-commercial use only
Optimize a model with 296 rows, 338 columns and 948 nonzeros
Model has 192 general constraints
Variable types: 218 continuous, 120 integer (96 binary)
Coefficient statistics:
  Matrix range     [1e+00, 4e+01]
  Objective range  [1e+00, 9e+02]
  Bounds range     [1e+00, 1e+00]
  RHS range        [1e+00, 4e+01]
Presolve added 216 rows and 0 columns
Presolve time: 0.01s
Presolved: 512 rows, 338 columns, 3774 nonzeros
Variable types: 0 continuous, 338 integer (288 binary)

Root relaxation: objective 0.000000e+00, 339 iterations, 0.01 seconds

    Nodes    |    Current Node    |     Objective Bounds      |     Work
 Expl Unexpl |  Obj  Depth IntInf | Incumbent    BestBd   Gap | It/Node Time

     0     0    0.00000    0  121          -    0.00000      -     -    0s
H    0     0                    10336.000000    0.00000   100%     -    0s
H    0     0                    6633.0000000    0.00000   100%     -    0s
     0     0    0.00000    0  136 6633.00000    0.00000   100%     -    0s
H    0     0                    5131.0000000    0.00000   100%     -    0s
H    0     0                    5124.0000000    0.00000   100%     -    0s
     0     0    0.00000    0   80 5124.00000    0.00000   100%     -    0s
H    0     0                    4933.0000000    0.00000   100%     -    0s
H    0     0                    4433.0000000    0.00000   100%     -    0s
     0     0    0.00000    0  120 4433.00000    0.00000   100%     -    0s
     0     0    0.00000    0  136 4433.00000    0.00000   100%     -    0s
     0     0    0.00000    0  121 4433.00000    0.00000   100%     -    0s
     0     0    0.00000    0  139 4433.00000    0.00000   100%     -    0s
H    0     0                    4234.0000000    0.00000   100%     -    0s
H    0     0                    3926.0000000    0.00000   100%     -    0s
     0     0    0.00000    0  109 3926.00000    0.00000   100%     -    0s
     0     0    0.00000    0  109 3926.00000    0.00000   100%     -    0s
     0     2    0.00000    0  109 3926.00000    0.00000   100%     -    0s
H   71    70                    3924.0000000    0.00000   100%  82.2    0s
H  156   137                    3844.0000000    0.00000   100%  50.1    0s
H  378   268                    3824.0000000    0.00000   100%  39.4    0s
*  398   278              30    3740.0000000    0.00000   100%  37.7    0s
H  444   317                    3659.0000000   13.36364   100%  37.1    0s
* 2143   752              54    3633.0000000  500.00000  86.2%  46.7    2s
H 3836  1035                    3569.0000000  976.00000  72.7%  41.2    3s
  9643  2063 3013.66667   29   66 3569.00000 1730.80000  51.5%  35.2    5s

Cutting planes:
  Zero half: 6

Explored 29745 nodes (746463 simplex iterations) in 9.24 seconds
Thread count was 4 (of 4 available processors)

Solution count 10: 3569 3633 3659 ... 4433

Optimal solution found (tolerance 1.00e-04)
Best objective 3.569000000000e+03, best bound 3.569000000000e+03, gap 0.0000%
Changed value of parameter TimeLimit to 100.0
   Prev: 1e+100  Min: 0.0  Max: 1e+100  Default: 1e+100
Changed value of parameter MIPFocus to 2
   Prev: 0  Min: 0  Max: 3  Default: 0
Optimize a model with 296 rows, 338 columns and 948 nonzeros
Model has 192 general constraints
Variable types: 218 continuous, 120 integer (96 binary)
Coefficient statistics:
  Matrix range     [1e+00, 4e+01]
  Objective range  [1e+00, 9e+02]
  Bounds range     [1e+00, 1e+00]
  RHS range        [1e+00, 4e+01]
Presolved: 512 rows, 338 columns, 3774 nonzeros

Continuing optimization...


Cutting planes:
  Zero half: 6

Explored 29745 nodes (746463 simplex iterations) in 0.00 seconds
Thread count was 4 (of 4 available processors)

Solution count 10: 3569 3633 3659 ... 4433

Optimal solution found (tolerance 1.00e-04)
Best objective 3.569000000000e+03, best bound 3.569000000000e+03, gap 0.0000%

Gurobi 8.0.1 (linux64, Python) logging started Sun Oct 28 18:43:33 2018

Academic license - for non-commercial use only
Optimize a model with 296 rows, 338 columns and 948 nonzeros
Model has 192 general constraints
Variable types: 242 continuous, 96 integer (96 binary)
Coefficient statistics:
  Matrix range     [1e+00, 4e+01]
  Objective range  [1e+00, 9e+02]
  Bounds range     [1e+00, 1e+00]
  RHS range        [1e+00, 4e+01]
Presolve added 216 rows and 0 columns
Presolve time: 0.01s
Presolved: 512 rows, 338 columns, 3774 nonzeros
Variable types: 50 continuous, 288 integer (288 binary)
Found heuristic solution: objective 8750.0000000

Root relaxation: objective 0.000000e+00, 339 iterations, 0.01 seconds

    Nodes    |    Current Node    |     Objective Bounds      |     Work
 Expl Unexpl |  Obj  Depth IntInf | Incumbent    BestBd   Gap | It/Node Time

     0     0    0.00000    0   96 8750.00000    0.00000   100%     -    0s
H    0     0                    6683.0000000    0.00000   100%     -    0s
H    0     0                    6183.0000000    0.00000   100%     -    0s
     0     0    0.00000    0  102 6183.00000    0.00000   100%     -    0s
H    0     0                    6131.0000000    0.00000   100%     -    0s
H    0     0                    4453.0000000    0.00000   100%     -    0s
     0     0    0.00000    0   89 4453.00000    0.00000   100%     -    0s
     0     0    0.00000    0   98 4453.00000    0.00000   100%     -    0s
     0     0    0.00000    0  103 4453.00000    0.00000   100%     -    0s
     0     0    0.00000    0   97 4453.00000    0.00000   100%     -    0s
     0     0    0.00000    0  105 4453.00000    0.00000   100%     -    0s
     0     0    0.00000    0   96 4453.00000    0.00000   100%     -    0s
     0     0    0.00000    0   94 4453.00000    0.00000   100%     -    0s
H    0     0                    4263.0000000    0.00000   100%     -    0s
     0     2    0.00000    0   91 4263.00000    0.00000   100%     -    0s
H  179   167                    4133.0000000    0.00000   100%  56.0    0s
H  267   235                    3894.0000000    0.00000   100%  51.6    0s
*  308   258              23    3838.0000000    0.00000   100%  50.2    0s
H  538   375                    3776.0000000    0.00000   100%  41.5    0s
H  778   495                    3713.0000000    0.00000   100%  42.3    1s
H  873   576                    3569.0000000    0.00000   100%  40.2    1s
H 1598   767                    3568.9999600  207.59524  94.2%  43.1    2s
H 1605   735                    3568.9997277  430.33333  87.9%  43.0    2s
H 1695   686                    3568.9993234  501.00000  86.0%  41.7    3s
H 1790   654                    3568.9992276  501.00000  86.0%  40.8    3s
H 2074   612                    3568.9990966  676.55556  81.0%  39.0    3s
H 3180   817                    3568.9990910  976.33333  72.6%  32.7    3s
  8529  1750 2789.11111   29   70 3568.99909 2189.33333  38.7%  24.3    5s

Cutting planes:
  Gomory: 1
  MIR: 4
  Flow cover: 1
  Inf proof: 2

Explored 23769 nodes (354338 simplex iterations) in 7.52 seconds
Thread count was 4 (of 4 available processors)

Solution count 10: 3569 3569 3569 ... 3838

Optimal solution found (tolerance 1.00e-04)
Best objective 3.568999090971e+03, best bound 3.568999090971e+03, gap 0.0000%
Changed value of parameter TimeLimit to 100.0
   Prev: 1e+100  Min: 0.0  Max: 1e+100  Default: 1e+100
Changed value of parameter MIPFocus to 2
   Prev: 0  Min: 0  Max: 3  Default: 0
Optimize a model with 296 rows, 338 columns and 948 nonzeros
Model has 192 general constraints
Variable types: 242 continuous, 96 integer (96 binary)
Coefficient statistics:
  Matrix range     [1e+00, 4e+01]
  Objective range  [1e+00, 9e+02]
  Bounds range     [1e+00, 1e+00]
  RHS range        [1e+00, 4e+01]
Presolved: 512 rows, 338 columns, 3774 nonzeros

Continuing optimization...


Cutting planes:
  Gomory: 1
  MIR: 4
  Flow cover: 1
  Inf proof: 2

Explored 23769 nodes (354338 simplex iterations) in 0.00 seconds
Thread count was 4 (of 4 available processors)

Solution count 10: 3569 3569 3569 ... 3838

Optimal solution found (tolerance 1.00e-04)
Best objective 3.568999090971e+03, best bound 3.568999090971e+03, gap 0.0000%

Gurobi 8.0.1 (linux64, Python) logging started Sun Oct 28 18:43:51 2018

Academic license - for non-commercial use only
Optimize a model with 296 rows, 338 columns and 948 nonzeros
Model has 192 general constraints
Variable types: 242 continuous, 96 integer (96 binary)
Coefficient statistics:
  Matrix range     [1e+00, 4e+01]
  Objective range  [1e+00, 9e+02]
  Bounds range     [1e+00, 1e+00]
  RHS range        [1e+00, 4e+01]
Presolve added 216 rows and 0 columns
Presolve time: 0.01s
Presolved: 512 rows, 338 columns, 3774 nonzeros
Variable types: 50 continuous, 288 integer (288 binary)
Found heuristic solution: objective 8750.0000000

Root relaxation: objective 0.000000e+00, 339 iterations, 0.01 seconds

    Nodes    |    Current Node    |     Objective Bounds      |     Work
 Expl Unexpl |  Obj  Depth IntInf | Incumbent    BestBd   Gap | It/Node Time

     0     0    0.00000    0   96 8750.00000    0.00000   100%     -    0s
H    0     0                    6683.0000000    0.00000   100%     -    0s
H    0     0                    6183.0000000    0.00000   100%     -    0s
     0     0    0.00000    0  102 6183.00000    0.00000   100%     -    0s
H    0     0                    6131.0000000    0.00000   100%     -    0s
H    0     0                    4453.0000000    0.00000   100%     -    0s
     0     0    0.00000    0   89 4453.00000    0.00000   100%     -    0s
     0     0    0.00000    0   98 4453.00000    0.00000   100%     -    0s
     0     0    0.00000    0  103 4453.00000    0.00000   100%     -    0s
     0     0    0.00000    0   97 4453.00000    0.00000   100%     -    0s
     0     0    0.00000    0  105 4453.00000    0.00000   100%     -    0s
     0     0    0.00000    0   96 4453.00000    0.00000   100%     -    0s
     0     0    0.00000    0   94 4453.00000    0.00000   100%     -    0s
H    0     0                    4263.0000000    0.00000   100%     -    0s
     0     2    0.00000    0   91 4263.00000    0.00000   100%     -    0s
H  179   167                    4133.0000000    0.00000   100%  56.0    0s
H  267   235                    3894.0000000    0.00000   100%  51.6    0s
*  308   258              23    3838.0000000    0.00000   100%  50.2    0s
H  538   375                    3776.0000000    0.00000   100%  41.5    0s
H  778   495                    3713.0000000    0.00000   100%  42.3    0s
H  873   576                    3569.0000000    0.00000   100%  40.2    1s
H 1598   767                    3568.9999600  207.59524  94.2%  43.1    2s
H 1605   735                    3568.9997277  430.33333  87.9%  43.0    2s
H 1695   686                    3568.9993234  501.00000  86.0%  41.7    2s
H 1790   654                    3568.9992276  501.00000  86.0%  40.8    3s
H 2074   612                    3568.9990966  676.55556  81.0%  39.0    3s
H 3180   817                    3568.9990910  976.33333  72.6%  32.7    3s
  8860  1771 infeasible   37      3568.99909 2282.00000  36.1%  23.9    5s

Cutting planes:
  Gomory: 1
  MIR: 4
  Flow cover: 1
  Inf proof: 2

Explored 23769 nodes (354338 simplex iterations) in 7.45 seconds
Thread count was 4 (of 4 available processors)

Solution count 10: 3569 3569 3569 ... 3838

Optimal solution found (tolerance 1.00e-04)
Best objective 3.568999090971e+03, best bound 3.568999090971e+03, gap 0.0000%
Changed value of parameter TimeLimit to 100.0
   Prev: 1e+100  Min: 0.0  Max: 1e+100  Default: 1e+100
Changed value of parameter MIPFocus to 2
   Prev: 0  Min: 0  Max: 3  Default: 0
Optimize a model with 296 rows, 338 columns and 948 nonzeros
Model has 192 general constraints
Variable types: 242 continuous, 96 integer (96 binary)
Coefficient statistics:
  Matrix range     [1e+00, 4e+01]
  Objective range  [1e+00, 9e+02]
  Bounds range     [1e+00, 1e+00]
  RHS range        [1e+00, 4e+01]
Presolved: 512 rows, 338 columns, 3774 nonzeros

Continuing optimization...


Cutting planes:
  Gomory: 1
  MIR: 4
  Flow cover: 1
  Inf proof: 2

Explored 23769 nodes (354338 simplex iterations) in 0.00 seconds
Thread count was 4 (of 4 available processors)

Solution count 10: 3569 3569 3569 ... 3838

Optimal solution found (tolerance 1.00e-04)
Best objective 3.568999090971e+03, best bound 3.568999090971e+03, gap 0.0000%

Gurobi 8.0.1 (linux64, Python) logging started Sun Oct 28 18:45:48 2018

Academic license - for non-commercial use only
Optimize a model with 296 rows, 338 columns and 948 nonzeros
Model has 192 general constraints
Variable types: 242 continuous, 96 integer (96 binary)
Coefficient statistics:
  Matrix range     [1e+00, 4e+01]
  Objective range  [1e+00, 9e+02]
  Bounds range     [1e+00, 1e+00]
  RHS range        [1e+00, 4e+01]
Presolve added 216 rows and 0 columns
Presolve time: 0.01s
Presolved: 512 rows, 338 columns, 3774 nonzeros
Variable types: 50 continuous, 288 integer (288 binary)
Found heuristic solution: objective 8750.0000000

Root relaxation: objective 0.000000e+00, 339 iterations, 0.01 seconds

    Nodes    |    Current Node    |     Objective Bounds      |     Work
 Expl Unexpl |  Obj  Depth IntInf | Incumbent    BestBd   Gap | It/Node Time

     0     0    0.00000    0   96 8750.00000    0.00000   100%     -    0s
H    0     0                    6683.0000000    0.00000   100%     -    0s
H    0     0                    6183.0000000    0.00000   100%     -    0s
     0     0    0.00000    0  102 6183.00000    0.00000   100%     -    0s
H    0     0                    6131.0000000    0.00000   100%     -    0s
H    0     0                    4453.0000000    0.00000   100%     -    0s
     0     0    0.00000    0   89 4453.00000    0.00000   100%     -    0s
     0     0    0.00000    0   98 4453.00000    0.00000   100%     -    0s
     0     0    0.00000    0  103 4453.00000    0.00000   100%     -    0s
     0     0    0.00000    0   97 4453.00000    0.00000   100%     -    0s
     0     0    0.00000    0  105 4453.00000    0.00000   100%     -    0s
     0     0    0.00000    0   96 4453.00000    0.00000   100%     -    0s
     0     0    0.00000    0   94 4453.00000    0.00000   100%     -    0s
H    0     0                    4263.0000000    0.00000   100%     -    0s
     0     2    0.00000    0   91 4263.00000    0.00000   100%     -    0s
H  179   167                    4133.0000000    0.00000   100%  56.0    0s
H  267   235                    3894.0000000    0.00000   100%  51.6    0s
*  308   258              23    3838.0000000    0.00000   100%  50.2    0s
H  538   375                    3776.0000000    0.00000   100%  41.5    0s
H  778   495                    3713.0000000    0.00000   100%  42.3    1s
H  873   576                    3569.0000000    0.00000   100%  40.2    1s
H 1598   767                    3568.9999600  207.59524  94.2%  43.1    2s
H 1605   735                    3568.9997277  430.33333  87.9%  43.0    2s
H 1695   686                    3568.9993234  501.00000  86.0%  41.7    3s
H 1790   654                    3568.9992276  501.00000  86.0%  40.8    3s
H 2074   612                    3568.9990966  676.55556  81.0%  39.0    3s
H 3180   817                    3568.9990910  976.33333  72.6%  32.7    3s
  8529  1750 2789.11111   29   70 3568.99909 2189.33333  38.7%  24.3    5s

Cutting planes:
  Gomory: 1
  MIR: 4
  Flow cover: 1
  Inf proof: 2

Explored 23769 nodes (354338 simplex iterations) in 7.49 seconds
Thread count was 4 (of 4 available processors)

Solution count 10: 3569 3569 3569 ... 3838

Optimal solution found (tolerance 1.00e-04)
Best objective 3.568999090971e+03, best bound 3.568999090971e+03, gap 0.0000%
Changed value of parameter TimeLimit to 100.0
   Prev: 1e+100  Min: 0.0  Max: 1e+100  Default: 1e+100
Changed value of parameter MIPFocus to 2
   Prev: 0  Min: 0  Max: 3  Default: 0
Optimize a model with 296 rows, 338 columns and 948 nonzeros
Model has 192 general constraints
Variable types: 242 continuous, 96 integer (96 binary)
Coefficient statistics:
  Matrix range     [1e+00, 4e+01]
  Objective range  [1e+00, 9e+02]
  Bounds range     [1e+00, 1e+00]
  RHS range        [1e+00, 4e+01]
Presolved: 512 rows, 338 columns, 3774 nonzeros

Continuing optimization...


Cutting planes:
  Gomory: 1
  MIR: 4
  Flow cover: 1
  Inf proof: 2

Explored 23769 nodes (354338 simplex iterations) in 0.00 seconds
Thread count was 4 (of 4 available processors)

Solution count 10: 3569 3569 3569 ... 3838

Optimal solution found (tolerance 1.00e-04)
Best objective 3.568999090971e+03, best bound 3.568999090971e+03, gap 0.0000%

Gurobi 8.0.1 (linux64, Python) logging started Sun Oct 28 18:49:48 2018

Academic license - for non-commercial use only
Optimize a model with 296 rows, 338 columns and 948 nonzeros
Model has 192 general constraints
Variable types: 218 continuous, 120 integer (96 binary)
Coefficient statistics:
  Matrix range     [1e+00, 4e+01]
  Objective range  [1e+00, 9e+02]
  Bounds range     [1e+00, 1e+00]
  RHS range        [1e+00, 4e+01]
Presolve added 216 rows and 0 columns
Presolve time: 0.01s
Presolved: 512 rows, 338 columns, 3774 nonzeros
Variable types: 0 continuous, 338 integer (288 binary)

Root relaxation: objective 0.000000e+00, 339 iterations, 0.01 seconds

    Nodes    |    Current Node    |     Objective Bounds      |     Work
 Expl Unexpl |  Obj  Depth IntInf | Incumbent    BestBd   Gap | It/Node Time

     0     0    0.00000    0  121          -    0.00000      -     -    0s
H    0     0                    10336.000000    0.00000   100%     -    0s
H    0     0                    6633.0000000    0.00000   100%     -    0s
     0     0    0.00000    0  136 6633.00000    0.00000   100%     -    0s
H    0     0                    5131.0000000    0.00000   100%     -    0s
H    0     0                    5124.0000000    0.00000   100%     -    0s
     0     0    0.00000    0   80 5124.00000    0.00000   100%     -    0s
H    0     0                    4933.0000000    0.00000   100%     -    0s
H    0     0                    4433.0000000    0.00000   100%     -    0s
     0     0    0.00000    0  120 4433.00000    0.00000   100%     -    0s
     0     0    0.00000    0  136 4433.00000    0.00000   100%     -    0s
     0     0    0.00000    0  121 4433.00000    0.00000   100%     -    0s
     0     0    0.00000    0  139 4433.00000    0.00000   100%     -    0s
H    0     0                    4234.0000000    0.00000   100%     -    0s
H    0     0                    3926.0000000    0.00000   100%     -    0s
     0     0    0.00000    0  109 3926.00000    0.00000   100%     -    0s
     0     0    0.00000    0  109 3926.00000    0.00000   100%     -    0s
     0     2    0.00000    0  109 3926.00000    0.00000   100%     -    0s
H   71    70                    3924.0000000    0.00000   100%  82.2    0s
H  156   137                    3844.0000000    0.00000   100%  50.1    0s
H  378   268                    3824.0000000    0.00000   100%  39.4    0s
*  398   278              30    3740.0000000    0.00000   100%  37.7    0s
H  444   317                    3659.0000000   13.36364   100%  37.1    0s
* 2143   752              54    3633.0000000  500.00000  86.2%  46.7    2s
H 3836  1035                    3569.0000000  976.00000  72.7%  41.2    3s
  9252  2029 2138.00000   23   69 3569.00000 1644.00000  53.9%  35.4    5s

Cutting planes:
  Zero half: 6

Explored 29745 nodes (746463 simplex iterations) in 9.27 seconds
Thread count was 4 (of 4 available processors)

Solution count 10: 3569 3633 3659 ... 4433

Optimal solution found (tolerance 1.00e-04)
Best objective 3.569000000000e+03, best bound 3.569000000000e+03, gap 0.0000%
Changed value of parameter TimeLimit to 100.0
   Prev: 1e+100  Min: 0.0  Max: 1e+100  Default: 1e+100
Changed value of parameter MIPFocus to 2
   Prev: 0  Min: 0  Max: 3  Default: 0
Optimize a model with 296 rows, 338 columns and 948 nonzeros
Model has 192 general constraints
Variable types: 218 continuous, 120 integer (96 binary)
Coefficient statistics:
  Matrix range     [1e+00, 4e+01]
  Objective range  [1e+00, 9e+02]
  Bounds range     [1e+00, 1e+00]
  RHS range        [1e+00, 4e+01]
Presolved: 512 rows, 338 columns, 3774 nonzeros

Continuing optimization...


Cutting planes:
  Zero half: 6

Explored 29745 nodes (746463 simplex iterations) in 0.00 seconds
Thread count was 4 (of 4 available processors)

Solution count 10: 3569 3633 3659 ... 4433

Optimal solution found (tolerance 1.00e-04)
Best objective 3.569000000000e+03, best bound 3.569000000000e+03, gap 0.0000%
